n = 100;
C = 23477;
w = [637,260,278,759,282,50,529,814,825,999,642,952,632,369,497,606,920,82,121,84,517,497,457,970,554,751,148,163,643,106,641,241,225,790,163,455,90,383,178,982,694,232,89,113,483,423,654,233,474,918,350,969,87,28,742,755,765,362,506,937,296,335,762,909,17,540,48,801,102,144,547,736,255,525,23,83,889,786,771,373,479,583,674,672,996,140,578,221,923,498,920,312,344,112,146,273,220,672,67,77];
p = [624,215,336,706,289,39,487,794,736,940,709,917,628,411,419,518,875,-16,131,124,433,471,440,1062,486,818,242,131,614,149,548,268,192,871,86,497,153,416,188,978,758,149,56,76,415,385,689,258,536,945,267,922,94,-70,702,693,673,412,565,937,278,414,787,1000,90,602,103,774,99,45,572,832,247,473,76,113,971,740,745,436,430,504,644,606,901,138,582,201,918,532,955,212,359,44,131,263,229,660,72,146];
